
Gurobi 11.0.1 (win64) logging started Thu May 16 19:32:27 2024

Set parameter LogFile to value "output/solver_log43.txt"
Gurobi Optimizer version 11.0.1 build v11.0.1rc0 (win64 - Windows 11.0 (22631.2))

CPU model: 11th Gen Intel(R) Core(TM) i7-1165G7 @ 2.80GHz, instruction set [SSE2|AVX|AVX2|AVX512]
Thread count: 4 physical cores, 8 logical processors, using up to 8 threads

Optimize a model with 5452 rows, 1437 columns and 102052 nonzeros
Model fingerprint: 0xf07de90b
Variable types: 568 continuous, 869 integer (869 binary)
Coefficient statistics:
  Matrix range     [4e-01, 1e+05]
  Objective range  [1e+00, 1e+02]
  Bounds range     [1e+00, 1e+00]
  RHS range        [1e-02, 1e+05]

User MIP start produced solution with objective 97563.6 (0.01s)
User MIP start produced solution with objective 97563.6 (0.01s)
Loaded user MIP start with objective 97563.6

Presolve removed 781 rows and 417 columns
Presolve time: 0.12s
Presolved: 4671 rows, 1020 columns, 88811 nonzeros
Variable types: 528 continuous, 492 integer (486 binary)

Root relaxation: objective 9.779700e+04, 1163 iterations, 0.07 seconds (0.12 work units)

    Nodes    |    Current Node    |     Objective Bounds      |     Work
 Expl Unexpl |  Obj  Depth IntInf | Incumbent    BestBd   Gap | It/Node Time

     0     0 97797.0037    0    7 97563.5876 97797.0037  0.24%     -    0s
     0     0 97616.9061    0   10 97563.5876 97616.9061  0.05%     -    0s
     0     0 97616.9061    0   10 97563.5876 97616.9061  0.05%     -    0s

Cutting planes:
  MIR: 2

Explored 1 nodes (1627 simplex iterations) in 0.66 seconds (0.91 work units)
Thread count was 8 (of 8 available processors)

Solution count 2: 97563.6 97563.6 

Optimal solution found (tolerance 1.00e-04)
Best objective 9.756358758706e+04, best bound 9.756917535039e+04, gap 0.0057%
